NAME : ar9152
COMMENT : 9152 locations in Argentina
COMMENT : Derived from National Imagery and Mapping Agency data
TYPE : TSP
DIMENSION : 4
EDGE_WEIGHT_TYPE : EUC_2D
NODE_COORD_SECTION
1 39.9199 32.8543
2 39.966751 32.584229
3 39.925533 32.866287
4 39.990429 32.695547
EOF